n_res = 4;
rc = [ 30, 17, 27, 16 ];
n_tasks = 30;
d = [ 2, 10, 4, 6, 5, 4, 7, 2, 1, 7, 10, 6, 5, 2, 3, 8, 3, 8, 3, 8, 8, 8, 1, 3, 8, 3, 2, 1, 2, 6 ];
rr = [| 30, 30, 30, 30, 30, 30, 30, 30, 30, 30, 30, 30, 30, 30, 30, 30, 30, 30, 30, 30, 30, 30, 30, 30, 30, 30, 30, 30, 30, 30
      | 17, 17, 17, 17, 17, 17, 17, 17, 17, 17, 17, 17, 17, 17, 17, 17, 17, 17, 17, 17, 17, 17, 17, 17, 17, 17, 17, 17, 17, 17
      | 27, 27, 27, 27, 27, 27, 27, 27, 27, 27, 27, 27, 27, 27, 27, 27, 27, 27, 27, 27, 27, 27, 27, 27, 27, 27, 27, 27, 27, 27
      | 16, 16, 16, 16, 16, 16, 16, 16, 16, 16, 16, 16, 16, 16, 16, 16, 16, 16, 16, 16, 16, 16, 16, 16, 16, 16, 16, 16, 16, 16|];
suc = [ { 18 },
       { 5, 13 },
       { 4, 16, 21 },
       { 7, 10, 11 },
       { 6, 8 },
       { 16, 30 },
       { 29 },
       { 9 },
       { 14, 18, 19 },
       { 30 },
       { 12 },
       { 22, 25 },
       { 15 },
       { 27 },
       { 23 },
       { 17, 20, 24 },
       { 26, 28 },
       { 25 },
       { 23 },
       { 23 },
       { 28 },
       { 29 },
       { 26, 28 },
       { 25, 26 },
       { 27 },
       { 27 },
       { 29 },
       {  },
       {  },
       {  } ];
